c Instancia generada aleatoriamente
p edge 50 5 10
v 5 1 2 3 4 5
v 5 6 7 8 9 10
v 5 11 12 13 14 15
v 5 16 17 18 19 20
v 5 21 22 23 24 25
v 5 26 27 28 29 30
v 5 31 32 33 34 35
v 5 36 37 38 39 40
v 5 41 42 43 44 45
v 5 46 47 48 49 50
e 1 3
e 1 7
e 1 8
e 1 10
e 1 12
e 1 14
e 1 20
e 1 22
e 1 23
e 1 24
e 1 26
e 1 27
e 1 28
e 1 29
e 1 31
e 1 35
e 1 38
e 1 40
e 1 44
e 1 46
e 1 47
e 1 50
e 2 5
e 2 6
e 2 9
e 2 10
e 2 11
e 2 12
e 2 13
e 2 14
e 2 18
e 2 20
e 2 25
e 2 26
e 2 30
e 2 33
e 2 35
e 2 36
e 2 39
e 2 40
e 2 42
e 2 48
e 2 50
e 3 7
e 3 8
e 3 11
e 3 14
e 3 16
e 3 18
e 3 19
e 3 20
e 3 21
e 3 22
e 3 24
e 3 25
e 3 27
e 3 28
e 3 29
e 3 34
e 3 36
e 3 37
e 3 38
e 3 40
e 3 41
e 3 43
e 3 45
e 3 47
e 3 49
e 4 5
e 4 6
e 4 13
e 4 14
e 4 16
e 4 17
e 4 18
e 4 19
e 4 23
e 4 24
e 4 26
e 4 28
e 4 30
e 4 32
e 4 33
e 4 36
e 4 37
e 4 38
e 4 41
e 4 44
e 4 46
e 4 49
e 5 10
e 5 21
e 5 22
e 5 25
e 5 27
e 5 29
e 5 31
e 5 32
e 5 33
e 5 34
e 5 36
e 5 40
e 5 43
e 5 44
e 5 47
e 5 48
e 5 50
e 6 7
e 6 8
e 6 11
e 6 13
e 6 14
e 6 15
e 6 17
e 6 19
e 6 20
e 6 24
e 6 25
e 6 29
e 6 31
e 6 35
e 6 37
e 6 38
e 6 41
e 6 42
e 6 43
e 6 47
e 6 49
e 6 50
e 7 8
e 7 10
e 7 12
e 7 13
e 7 14
e 7 19
e 7 21
e 7 26
e 7 29
e 7 33
e 7 35
e 7 36
e 7 38
e 7 39
e 7 41
e 7 42
e 7 43
e 7 46
e 7 48
e 8 9
e 8 10
e 8 11
e 8 12
e 8 13
e 8 14
e 8 15
e 8 21
e 8 22
e 8 23
e 8 26
e 8 27
e 8 28
e 8 29
e 8 31
e 8 32
e 8 33
e 8 34
e 8 35
e 8 38
e 8 41
e 8 42
e 8 46
e 8 48
e 8 50
e 9 10
e 9 11
e 9 15
e 9 17
e 9 18
e 9 19
e 9 22
e 9 23
e 9 26
e 9 27
e 9 30
e 9 31
e 9 33
e 9 34
e 9 35
e 9 36
e 9 39
e 9 40
e 9 41
e 9 42
e 9 45
e 9 46
e 10 11
e 10 12
e 10 14
e 10 15
e 10 20
e 10 22
e 10 23
e 10 25
e 10 26
e 10 27
e 10 29
e 10 30
e 10 32
e 10 35
e 10 36
e 10 40
e 10 41
e 10 42
e 10 44
e 10 48
e 10 49
e 10 50
e 11 12
e 11 13
e 11 14
e 11 16
e 11 18
e 11 19
e 11 20
e 11 21
e 11 23
e 11 30
e 11 32
e 11 38
e 11 39
e 11 43
e 11 44
e 11 45
e 11 47
e 12 13
e 12 14
e 12 15
e 12 16
e 12 19
e 12 20
e 12 24
e 12 26
e 12 27
e 12 32
e 12 33
e 12 39
e 12 43
e 13 15
e 13 22
e 13 24
e 13 25
e 13 30
e 13 35
e 13 37
e 13 42
e 13 43
e 13 45
e 13 47
e 13 49
e 13 50
e 14 15
e 14 16
e 14 17
e 14 18
e 14 23
e 14 24
e 14 26
e 14 27
e 14 30
e 14 31
e 14 35
e 14 36
e 14 42
e 14 44
e 14 45
e 14 47
e 14 50
e 15 16
e 15 20
e 15 23
e 15 24
e 15 28
e 15 29
e 15 30
e 15 33
e 15 36
e 15 37
e 15 38
e 15 43
e 15 46
e 15 47
e 15 48
e 15 49
e 16 21
e 16 22
e 16 23
e 16 27
e 16 28
e 16 30
e 16 33
e 16 34
e 16 36
e 16 41
e 16 42
e 16 43
e 16 44
e 16 46
e 16 47
e 16 48
e 16 50
e 17 18
e 17 19
e 17 20
e 17 23
e 17 25
e 17 26
e 17 27
e 17 28
e 17 29
e 17 30
e 17 33
e 17 34
e 17 35
e 17 38
e 17 40
e 17 42
e 17 45
e 17 48
e 17 49
e 18 23
e 18 25
e 18 27
e 18 29
e 18 30
e 18 31
e 18 32
e 18 33
e 18 35
e 18 38
e 18 40
e 18 41
e 18 43
e 18 45
e 19 20
e 19 21
e 19 24
e 19 26
e 19 27
e 19 29
e 19 30
e 19 33
e 19 34
e 19 36
e 19 37
e 19 39
e 19 41
e 19 45
e 19 49
e 19 50
e 20 21
e 20 29
e 20 30
e 20 31
e 20 32
e 20 33
e 20 34
e 20 35
e 20 39
e 20 40
e 20 41
e 20 42
e 20 44
e 20 45
e 20 46
e 20 49
e 21 23
e 21 24
e 21 27
e 21 32
e 21 35
e 21 36
e 21 37
e 21 39
e 21 41
e 21 42
e 21 45
e 21 48
e 21 50
e 22 23
e 22 25
e 22 27
e 22 28
e 22 29
e 22 30
e 22 32
e 22 35
e 22 38
e 22 41
e 22 42
e 22 44
e 22 45
e 22 46
e 22 47
e 22 48
e 22 49
e 22 50
e 23 25
e 23 26
e 23 27
e 23 33
e 23 34
e 23 36
e 23 38
e 23 39
e 23 44
e 23 48
e 23 50
e 24 25
e 24 26
e 24 28
e 24 40
e 24 43
e 24 44
e 24 45
e 24 49
e 25 26
e 25 27
e 25 29
e 25 30
e 25 31
e 25 32
e 25 33
e 25 36
e 25 40
e 25 41
e 25 45
e 26 27
e 26 32
e 26 33
e 26 35
e 26 36
e 26 37
e 26 38
e 26 39
e 26 41
e 26 42
e 26 45
e 26 48
e 26 49
e 26 50
e 27 28
e 27 30
e 27 32
e 27 35
e 27 36
e 27 37
e 27 38
e 27 39
e 27 41
e 27 42
e 27 44
e 27 45
e 27 46
e 27 48
e 27 49
e 27 50
e 28 29
e 28 31
e 28 35
e 28 36
e 28 39
e 28 41
e 28 45
e 28 49
e 28 50
e 29 31
e 29 33
e 29 34
e 29 36
e 29 39
e 29 41
e 29 42
e 29 43
e 29 45
e 29 46
e 29 48
e 29 49
e 30 31
e 30 32
e 30 33
e 30 34
e 30 39
e 30 40
e 30 41
e 30 42
e 30 46
e 30 47
e 30 48
e 30 49
e 31 33
e 31 35
e 31 37
e 31 38
e 31 39
e 31 44
e 31 45
e 31 46
e 31 49
e 31 50
e 32 33
e 32 34
e 32 37
e 32 38
e 32 39
e 32 40
e 32 44
e 32 47
e 32 49
e 32 50
e 33 34
e 33 37
e 33 40
e 33 43
e 33 47
e 33 48
e 33 49
e 34 35
e 34 37
e 34 39
e 34 41
e 34 47
e 34 48
e 34 50
e 35 37
e 35 38
e 35 40
e 35 41
e 35 43
e 35 44
e 35 47
e 35 49
e 36 37
e 36 41
e 36 43
e 36 45
e 36 46
e 36 47
e 36 50
e 37 40
e 37 42
e 37 43
e 37 44
e 37 45
e 37 48
e 38 39
e 38 42
e 38 48
e 39 40
e 39 42
e 39 43
e 39 44
e 39 46
e 39 47
e 39 48
e 39 49
e 39 50
e 40 41
e 40 42
e 40 44
e 40 45
e 40 46
e 40 50
e 41 42
e 41 46
e 41 47
e 41 49
e 41 50
e 42 43
e 42 47
e 42 48
e 42 49
e 42 50
e 43 44
e 43 45
e 44 48
e 44 50
e 46 47
e 46 49
e 47 48
e 48 50
